NAME : B-n67-k10.616540.tour
COMMENT : Cost = 0_616540
COMMENT : Found by LKH [Keld Helsgaun] Mon Dec 18 12:55:39 2017
TYPE : TOUR
DIMENSION : 76
TOUR_SECTION
1
29
14
59
13
46
53
23
69
17
44
28
8
36
50
2
37
43
41
65
72
10
49
64
26
22
74
47
5
15
51
12
20
21
76
40
54
45
35
7
70
63
62
31
58
4
61
75
6
57
16
56
55
71
67
52
33
66
38
24
9
73
18
39
11
42
30
25
60
68
34
48
3
27
19
32
-1
EOF
